* ENCODING=ISO-8859-1
NAME          CPLEX
ROWS
 N  obj1    
 G  c1      
 G  c2      
 G  c3      
 G  c4      
 G  c5      
 G  c6      
 G  c7      
 G  c8      
 G  c9      
 G  c10     
 G  c11     
 G  c12     
 G  c13     
 G  c14     
 G  c15     
 G  c16     
 G  c17     
 G  c18     
 G  c19     
 G  c20     
 G  c21     
 G  c22     
 G  c23     
 G  c24     
 G  c25     
 G  c26     
 G  c27     
 G  c28     
 G  c29     
 G  c30     
 G  c31     
 G  c32     
 G  c33     
 G  c34     
 G  c35     
 G  c36     
 G  c37     
 G  c38     
 G  c39     
 G  c40     
 G  c41     
 G  c42     
 G  c43     
 G  c44     
 G  c45     
 G  c46     
 G  c47     
 G  c48     
 G  c49     
 G  c50     
COLUMNS
    MARK0000  'MARKER'                 'INTORG'
    x1        obj1                            1
    x1        c37                           559
    x2        obj1                            1
    x2        c2                            528
    x2        c12                           495
    x2        c13                           544
    x2        c42                           520
    x3        obj1                            1
    x3        c1                            561
    x3        c8                            662
    x3        c15                           160
    x3        c23                           608
    x3        c30                           507
    x3        c36                           529
    x3        c45                           926
    x3        c48                           827
    x4        obj1                            1
    x4        c23                           718
    x4        c31                           789
    x4        c33                           996
    x4        c44                           542
    x5        obj1                            1
    x5        c9                            786
    x5        c19                           133
    x5        c23                           327
    x5        c33                           109
    x5        c39                           575
    x5        c41                           990
    x5        c42                           184
    x6        obj1                            1
    x6        c22                           371
    x6        c48                           219
    x7        obj1                            1
    x7        c7                            501
    x7        c8                            359
    x7        c10                           728
    x7        c44                           985
    x7        c45                           291
    x7        c46                           531
    x8        obj1                            1
    x8        c6                            786
    x8        c10                           415
    x8        c23                           466
    x8        c33                           948
    x8        c40                           359
    x9        obj1                            1
    x9        c5                            996
    x9        c9                            770
    x9        c13                           525
    x9        c40                           248
    x9        c47                           891
    x10       obj1                            1
    x10       c12                           297
    x10       c18                           923
    x10       c20                           873
    x10       c35                           733
    x10       c42                           408
    x11       obj1                            1
    x11       c15                           505
    x11       c18                           841
    x11       c22                           807
    x11       c33                           621
    x12       obj1                            1
    x12       c6                            919
    x12       c10                           894
    x12       c35                           156
    x12       c36                           216
    x12       c48                           710
    x13       obj1                            1
    x13       c6                            329
    x13       c10                           875
    x13       c19                           684
    x13       c22                           548
    x13       c32                           866
    x13       c34                           399
    x13       c42                           497
    x13       c45                           159
    x14       obj1                            1
    x14       c2                            212
    x14       c25                           560
    x14       c45                           846
    x14       c50                           134
    x15       obj1                            1
    x15       c27                           371
    x15       c33                           799
    x15       c46                           255
    x15       c49                           972
    x16       obj1                            1
    x16       c1                            348
    x16       c2                           1000
    x16       c7                            176
    x16       c11                           209
    x16       c16                           537
    x16       c26                           817
    x17       obj1                            1
    x17       c15                           294
    x17       c20                           610
    x17       c27                           245
    x17       c29                           612
    x18       obj1                            1
    x18       c4                            692
    x18       c10                           265
    x18       c14                           591
    x18       c37                           987
    x18       c40                           809
    x18       c41                           480
    x19       obj1                            1
    x19       c11                           139
    x19       c24                           296
    x20       obj1                            1
    x20       c7                            549
    x20       c13                           155
    x20       c23                           807
    x20       c34                           955
    x20       c42                           537
    x20       c48                           973
    x21       obj1                            1
    x21       c48                           358
    x21       c49                           791
    x21       c50                           593
    x22       obj1                            1
    x22       c1                            570
    x22       c17                           590
    x22       c31                           466
    x23       obj1                            1
    x23       c7                            299
    x23       c11                           432
    x23       c12                           322
    x23       c14                           373
    x23       c28                           886
    x23       c44                           784
    x24       obj1                            1
    x24       c4                            192
    x24       c7                            279
    x24       c19                           799
    x24       c20                           907
    x24       c21                           169
    x24       c32                           551
    x24       c48                           767
    x25       obj1                            1
    x25       c11                           692
    x25       c17                           755
    x25       c35                           164
    x25       c40                           571
    x25       c45                           927
    x26       obj1                            1
    x26       c2                            673
    x26       c16                           575
    x26       c21                           638
    x26       c23                           638
    x27       obj1                            1
    x27       c11                           759
    x27       c27                           867
    x27       c31                           155
    x27       c32                           898
    x27       c33                           283
    x27       c50                           760
    x28       obj1                            1
    x28       c30                           697
    x28       c31                           390
    x28       c36                           414
    x29       obj1                            1
    x29       c1                            867
    x29       c2                            565
    x29       c5                            329
    x29       c19                           424
    x29       c26                           960
    x29       c34                           273
    x29       c38                           501
    x29       c39                           475
    x29       c46                           167
    x29       c47                           245
    x30       obj1                            1
    x30       c6                            950
    x30       c12                           632
    x30       c31                           134
    x31       obj1                            1
    x31       c1                            131
    x31       c2                            909
    x31       c5                            871
    x31       c33                           319
    x31       c39                           953
    x31       c45                           451
    x31       c47                           777
    x31       c49                           790
    x32       obj1                            1
    x32       c3                            113
    x32       c18                           872
    x32       c29                           661
    x32       c46                           465
    x32       c48                           406
    x33       obj1                            1
    x33       c12                           280
    x33       c32                           475
    x33       c44                           637
    x34       obj1                            1
    x34       c6                            611
    x34       c20                           746
    x34       c28                           776
    x35       obj1                            1
    x35       c17                           784
    x35       c21                           900
    x35       c31                           530
    x35       c35                           973
    x35       c50                           167
    x36       obj1                            1
    x36       c6                            272
    x36       c15                           932
    x37       obj1                            1
    x37       c19                           980
    x37       c26                           765
    x38       obj1                            1
    x38       c3                            377
    x38       c37                           570
    x39       obj1                            1
    x39       c12                           825
    x39       c14                           630
    x39       c25                           850
    x39       c26                           416
    x39       c36                           786
    x39       c38                           386
    x39       c50                           427
    x40       obj1                            1
    x40       c1                            995
    x40       c8                            540
    x40       c29                           497
    x40       c41                           764
    x41       obj1                            1
    x41       c4                            233
    x41       c6                            599
    x41       c8                            360
    x41       c24                           488
    x41       c26                           168
    x41       c45                           975
    x42       obj1                            1
    x42       c21                           649
    x42       c24                           700
    x42       c41                           178
    x43       obj1                            1
    x43       c21                           354
    x43       c30                           211
    x43       c43                           529
    x44       obj1                            1
    x44       c3                            253
    x44       c23                           957
    x44       c26                           290
    x44       c27                           482
    x44       c28                           400
    x44       c31                           669
    x44       c36                           321
    x44       c43                           750
    x45       obj1                            1
    x45       c11                           847
    x45       c14                           345
    x45       c18                           163
    x45       c20                           968
    x45       c21                           775
    x45       c26                           458
    x45       c27                           286
    x45       c30                           674
    x45       c40                           943
    x46       obj1                            1
    x46       c5                            886
    x46       c16                           171
    x46       c17                           467
    x46       c19                           104
    x46       c38                           959
    x47       obj1                            1
    x47       c16                           953
    x47       c25                           359
    x47       c37                           206
    x47       c38                           418
    x47       c41                           686
    x47       c46                           833
    x48       obj1                            1
    x48       c9                            361
    x48       c10                           581
    x48       c11                           673
    x48       c22                           336
    x48       c40                           302
    x48       c50                           287
    x49       obj1                            1
    x49       c2                            873
    x49       c22                           732
    x49       c27                           394
    x49       c43                           147
    x49       c44                           801
    x49       c50                           223
    x50       obj1                            1
    x50       c1                            524
    x50       c5                            816
    x50       c12                           252
    x50       c27                           551
    x50       c30                           560
    x50       c34                           391
    MARK0001  'MARKER'                 'INTEND'
RHS
    rhs       c1                           1998
    rhs       c2                           2380
    rhs       c3                            372
    rhs       c4                            559
    rhs       c5                           1949
    rhs       c6                           2233
    rhs       c7                            902
    rhs       c8                            961
    rhs       c9                            959
    rhs       c10                          1879
    rhs       c11                          1876
    rhs       c12                          1552
    rhs       c13                           612
    rhs       c14                           970
    rhs       c15                           946
    rhs       c16                          1118
    rhs       c17                          1298
    rhs       c18                          1400
    rhs       c19                          1562
    rhs       c20                          2052
    rhs       c21                          1743
    rhs       c22                          1397
    rhs       c23                          2261
    rhs       c24                           742
    rhs       c25                           885
    rhs       c26                          1937
    rhs       c27                          1598
    rhs       c28                          1031
    rhs       c29                           885
    rhs       c30                          1325
    rhs       c31                          1567
    rhs       c32                          1395
    rhs       c33                          2038
    rhs       c34                          1009
    rhs       c35                          1013
    rhs       c36                          1133
    rhs       c37                          1161
    rhs       c38                          1132
    rhs       c39                          1002
    rhs       c40                          1616
    rhs       c41                          1549
    rhs       c42                          1073
    rhs       c43                           713
    rhs       c44                          1875
    rhs       c45                          2288
    rhs       c46                          1126
    rhs       c47                           957
    rhs       c48                          2130
    rhs       c49                          1277
    rhs       c50                          1296
BOUNDS
 LI bnd       x1        0
 LI bnd       x2        0
 LI bnd       x3        0
 LI bnd       x4        0
 LI bnd       x5        0
 LI bnd       x6        0
 LI bnd       x7        0
 LI bnd       x8        0
 LI bnd       x9        0
 LI bnd       x10       0
 LI bnd       x11       0
 LI bnd       x12       0
 LI bnd       x13       0
 LI bnd       x14       0
 LI bnd       x15       0
 LI bnd       x16       0
 LI bnd       x17       0
 LI bnd       x18       0
 LI bnd       x19       0
 LI bnd       x20       0
 LI bnd       x21       0
 LI bnd       x22       0
 LI bnd       x23       0
 LI bnd       x24       0
 LI bnd       x25       0
 LI bnd       x26       0
 LI bnd       x27       0
 LI bnd       x28       0
 LI bnd       x29       0
 LI bnd       x30       0
 LI bnd       x31       0
 LI bnd       x32       0
 LI bnd       x33       0
 LI bnd       x34       0
 LI bnd       x35       0
 LI bnd       x36       0
 LI bnd       x37       0
 LI bnd       x38       0
 LI bnd       x39       0
 LI bnd       x40       0
 LI bnd       x41       0
 LI bnd       x42       0
 LI bnd       x43       0
 LI bnd       x44       0
 LI bnd       x45       0
 LI bnd       x46       0
 LI bnd       x47       0
 LI bnd       x48       0
 LI bnd       x49       0
 LI bnd       x50       0
ENDATA
